
Gurobi 6.0.0 (linux64) logging started Thu Feb  5 23:08:11 2015


Gurobi 6.0.0 (linux64) logging started Thu Feb  5 23:08:11 2015


Gurobi 6.0.0 (linux64) logging started Thu Feb  5 23:08:11 2015


Gurobi 6.0.0 (linux64) logging started Thu Feb  5 23:08:11 2015


Gurobi 6.0.0 (linux64) logging started Thu Feb  5 23:08:11 2015


Gurobi 6.0.0 (linux64) logging started Thu Feb  5 23:08:11 2015


Gurobi 6.0.0 (linux64) logging started Thu Feb  5 23:08:11 2015


Gurobi 6.0.0 (linux64) logging started Thu Feb  5 23:08:11 2015


Gurobi 6.0.0 (linux64) logging started Thu Feb  5 23:08:11 2015


Gurobi 6.0.0 (linux64) logging started Thu Feb  5 23:08:11 2015


Gurobi 6.0.0 (linux64) logging started Thu Feb  5 23:08:11 2015


Gurobi 6.0.0 (linux64) logging started Thu Feb  5 23:08:11 2015


Gurobi 6.0.0 (linux64) logging started Thu Feb  5 23:08:11 2015


Gurobi 6.0.0 (linux64) logging started Thu Feb  5 23:08:11 2015


Gurobi 6.0.0 (linux64) logging started Thu Feb  5 23:08:11 2015


Gurobi 6.0.0 (linux64) logging started Thu Feb  5 23:08:11 2015


Gurobi 6.0.0 (linux64) logging started Thu Feb  5 23:08:11 2015


Gurobi 6.0.0 (linux64) logging started Thu Feb  5 23:08:11 2015


Gurobi 6.0.0 (linux64) logging started Thu Feb  5 23:08:11 2015


Gurobi 6.0.0 (linux64) logging started Thu Feb  5 23:08:11 2015


Gurobi 6.0.0 (linux64) logging started Thu Feb  5 23:08:11 2015


Gurobi 6.0.0 (linux64) logging started Thu Feb  5 23:08:11 2015


Gurobi 6.0.0 (linux64) logging started Thu Feb  5 23:08:11 2015


Gurobi 6.0.0 (linux64) logging started Thu Feb  5 23:08:11 2015


Gurobi 6.0.0 (linux64) logging started Thu Feb  5 23:08:11 2015


Gurobi 6.0.0 (linux64) logging started Thu Feb  5 23:08:11 2015


Gurobi 6.0.0 (linux64) logging started Thu Feb  5 23:08:11 2015


Gurobi 6.0.0 (linux64) logging started Thu Feb  5 23:08:11 2015


Gurobi 6.0.0 (linux64) logging started Thu Feb  5 23:08:11 2015


Gurobi 6.0.0 (linux64) logging started Thu Feb  5 23:08:11 2015


Gurobi 6.0.0 (linux64) logging started Thu Feb  5 23:08:11 2015


Gurobi 6.0.0 (linux64) logging started Thu Feb  5 23:08:11 2015


Gurobi 6.0.0 (linux64) logging started Thu Feb  5 23:08:11 2015


Gurobi 6.0.0 (linux64) logging started Thu Feb  5 23:08:11 2015


Gurobi 6.0.0 (linux64) logging started Thu Feb  5 23:08:11 2015


Gurobi 6.0.0 (linux64) logging started Thu Feb  5 23:08:11 2015


Gurobi 6.0.0 (linux64) logging started Thu Feb  5 23:08:11 2015


Gurobi 6.0.0 (linux64) logging started Thu Feb  5 23:08:11 2015


Gurobi 6.0.0 (linux64) logging started Thu Feb  5 23:08:11 2015


Gurobi 6.0.0 (linux64) logging started Thu Feb  5 23:08:11 2015


Gurobi 6.0.0 (linux64) logging started Thu Feb  5 23:08:11 2015


Gurobi 6.0.0 (linux64) logging started Thu Feb  5 23:08:11 2015


Gurobi 6.0.0 (linux64) logging started Thu Feb  5 23:08:11 2015


Gurobi 6.0.0 (linux64) logging started Thu Feb  5 23:08:11 2015


Gurobi 6.0.0 (linux64) logging started Thu Feb  5 23:08:11 2015


Gurobi 6.0.0 (linux64) logging started Thu Feb  5 23:08:11 2015


Gurobi 6.0.0 (linux64) logging started Thu Feb  5 23:08:11 2015


Gurobi 6.0.0 (linux64) logging started Thu Feb  5 23:08:11 2015


Gurobi 6.0.0 (linux64) logging started Thu Feb  5 23:08:11 2015


Gurobi 6.0.0 (linux64) logging started Thu Feb  5 23:08:11 2015


Gurobi 6.0.0 (linux64) logging started Thu Feb  5 23:08:11 2015


Gurobi 6.0.0 (linux64) logging started Thu Feb  5 23:08:11 2015


Gurobi 6.0.0 (linux64) logging started Thu Feb  5 23:08:11 2015


Gurobi 6.0.0 (linux64) logging started Thu Feb  5 23:08:11 2015


Gurobi 6.0.0 (linux64) logging started Thu Feb  5 23:08:11 2015


Gurobi 6.0.0 (linux64) logging started Thu Feb  5 23:08:11 2015


Gurobi 6.0.0 (linux64) logging started Thu Feb  5 23:08:11 2015


Gurobi 6.0.0 (linux64) logging started Thu Feb  5 23:08:11 2015


Gurobi 6.0.0 (linux64) logging started Thu Feb  5 23:08:11 2015


Gurobi 6.0.0 (linux64) logging started Thu Feb  5 23:08:11 2015


Gurobi 6.0.0 (linux64) logging started Thu Feb  5 23:08:11 2015


Gurobi 6.0.0 (linux64) logging started Thu Feb  5 23:08:11 2015


Gurobi 6.0.0 (linux64) logging started Thu Feb  5 23:08:11 2015


Gurobi 6.0.0 (linux64) logging started Thu Feb  5 23:08:11 2015


Gurobi 6.0.0 (linux64) logging started Thu Feb  5 23:08:11 2015


Gurobi 6.0.0 (linux64) logging started Thu Feb  5 23:08:11 2015


Gurobi 6.0.0 (linux64) logging started Thu Feb  5 23:08:11 2015


Gurobi 6.0.0 (linux64) logging started Thu Feb  5 23:08:11 2015


Gurobi 6.0.0 (linux64) logging started Thu Feb  5 23:08:11 2015


Gurobi 6.0.0 (linux64) logging started Thu Feb  5 23:08:11 2015


Gurobi 6.0.0 (linux64) logging started Thu Feb  5 23:08:11 2015


Gurobi 6.0.0 (linux64) logging started Thu Feb  5 23:08:11 2015

